NAME : KROD99C.26041.tour
COMMENT : Cost = 0_26041
COMMENT : Found by LKH [Keld Helsgaun] Sun Sep 17 16:52:41 2017
TYPE : TOUR
DIMENSION : 99
TOUR_SECTION
1
27
24
87
83
15
62
54
39
43
70
4
92
44
60
53
35
99
51
37
55
9
10
20
25
82
6
18
95
85
64
14
67
33
45
98
77
31
57
71
79
75
46
8
61
73
7
74
66
36
29
58
22
42
23
89
17
93
32
96
97
49
69
88
11
34
80
38
65
52
68
16
81
47
12
28
21
56
94
26
86
91
48
2
30
19
5
3
40
59
84
63
76
90
72
41
78
13
50
-1
EOF
